Version identifier: 22.1.0.0 | 2022-03-09 | 1a383f8ce
CPXPARAM_Threads                                 1
CPXPARAM_MIP_Strategy_VariableSelect             3
CPXPARAM_TimeLimit                               600
Tried aggregator 1 time.
Reduced MIP has 920 rows, 3600 columns, and 20105 nonzeros.
Reduced MIP has 2600 binaries, 1000 generals, 0 SOSs, and 0 indicators.
Presolve time = 0.01 sec. (8.50 ticks)
Found incumbent of value 7.9774412e+74 after 0.03 sec. (21.73 ticks)
Probing time = 0.00 sec. (3.08 ticks)
Tried aggregator 1 time.
Detecting symmetries...
Reduced MIP has 920 rows, 3600 columns, and 20105 nonzeros.
Reduced MIP has 2600 binaries, 1000 generals, 0 SOSs, and 0 indicators.
Presolve time = 0.01 sec. (11.25 ticks)
Probing time = 0.00 sec. (3.08 ticks)
Clique table members: 116.
MIP emphasis: balance optimality and feasibility.
MIP search method: dynamic search.
Parallel mode: none, using 1 thread.
Root relaxation solution time = 0.20 sec. (191.85 ticks)

        Nodes                                         Cuts/
   Node  Left     Objective  IInf  Best Integer    Best Bound    ItCnt     Gap

*     0+    0                       7.97744e+74        0.0000           100.00%
      0     0        0.0000   715   7.97744e+74        0.0000     1849  100.00%
*     0+    0                       1.41230e+74        0.0000           100.00%
Detecting symmetries...
      0     2        0.0000   445   1.41230e+74        0.0000     1849  100.00%
Elapsed time = 2.00 sec. (1778.36 ticks, tree = 0.01 MB, solutions = 2)
      1     3        0.0000   583   1.41230e+74        0.0000     6140  100.00%
      2     4        0.0000   627   1.41230e+74        0.0000     8316  100.00%
      3     5        0.0000   565   1.41230e+74        0.0000    11061  100.00%
      4     6       -0.0000   504   1.41230e+74        0.0000    12359  100.00%
      6     8        0.0000   572   1.41230e+74        0.0000    15546  100.00%
      7     9        0.0000   523   1.41230e+74        0.0000    18356  100.00%
      9    11        0.0000   519   1.41230e+74        0.0000    19307  100.00%
     10    12        0.0000   557   1.41230e+74        0.0000    19934  100.00%
     12    14        0.0000   457   1.41230e+74        0.0000    22219  100.00%
     18    20        0.0000   377   1.41230e+74        0.0000    29865  100.00%
Elapsed time = 6.61 sec. (6375.54 ticks, tree = 0.14 MB, solutions = 2)
     23    25       -0.0000   339   1.41230e+74        0.0000    34862  100.00%
     30    32        0.0000   195   1.41230e+74        0.0000    38387  100.00%
*    40+   40                       1.23278e+12        0.0000           100.00%
     40    42       -0.0000   263   1.23278e+12        0.0000    39792  100.00%
     51    53        0.0000   337   1.23278e+12        0.0000    42063  100.00%
*    66    57      integral     0        1.0000        0.0000    43622  100.00%
     84    65        0.0000   122        1.0000        0.0000    46894  100.00%
    105    70        0.0000   300        1.0000        0.0000    50300  100.00%
    124    80       -0.0000   371        1.0000        0.0000    52895  100.00%
    147    97        0.0000   385        1.0000        0.0000    54317  100.00%
    173   104       -0.0000   282        1.0000        0.0000    56572  100.00%
Elapsed time = 17.42 sec. (16368.80 ticks, tree = 0.91 MB, solutions = 4)
    193   113        0.0000   298        1.0000        0.0000    58653  100.00%
    206   119        0.0000   299        1.0000        0.0000    60648  100.00%
    217   125        0.0000   199        1.0000        0.0000    64759  100.00%
    237   137       -0.0000   183        1.0000        0.0000    66897  100.00%
    256   149        0.0000   331        1.0000        0.0000    68566  100.00%
    285   159        0.0000   320        1.0000        0.0000    70945  100.00%
    309   170        0.0000   146        1.0000        0.0000    72893  100.00%
    337   182       -0.0000   219        1.0000        0.0000    75236  100.00%
    362   176    infeasible              1.0000        0.0000    80966  100.00%
    383   189        0.0000   220        1.0000        0.0000    83552  100.00%
Elapsed time = 28.73 sec. (26220.80 ticks, tree = 1.72 MB, solutions = 4)
    418   193        0.0000   195        1.0000        0.0000    86298  100.00%
    455   195       -0.0000   399        1.0000        0.0000    88315  100.00%
    475   206       -0.0000   246        1.0000        0.0000    90704  100.00%
    504   221        0.0000   271        1.0000        0.0000    92756  100.00%
    538   224    infeasible              1.0000        0.0000    95373  100.00%
*   561     1      integral     0        0.0000        0.0000    97143    0.00%

Mixed integer rounding cuts applied:  1

Root node processing (before b&c):
  Real time             =    1.99 sec. (1771.12 ticks)
Sequential b&c:
  Real time             =   33.29 sec. (30169.49 ticks)
                          ------------
Total (root+branch&cut) =   35.28 sec. (31940.61 ticks)
Violation-free sequence bound:	100
Unscheduled:	0
Status:	Optimal
Time:	35.28
Sequence:
	16
	14
	2
	5
	14
	12
	5
	17
	1
	10
	14
	2
	5
	19
	1
	5
	17
	1
	1
	17
	10
	12
	14
	10
	3
	19
	16
	0
	17
	10
	1
	19
	5
	2
	14
	16
	6
	15
	8
	1
	15
	11
	12
	13
	11
	0
	13
	8
	3
	4
	18
	9
	4
	5
	9
	15
	5
	9
	4
	6
	8
	13
	2
	11
	13
	12
	11
	4
	1
	8
	15
	3
	16
	19
	6
	10
	19
	6
	16
	17
	12
	5
	19
	0
	16
	15
	9
	5
	13
	7
	18
	15
	9
	5
	4
	9
	5
	13
	3
	8
Violation-free sequence:
	16
	14
	2
	5
	14
	12
	5
	17
	1
	10
	14
	2
	5
	19
	1
	5
	17
	1
	1
	17
	10
	12
	14
	10
	3
	19
	16
	0
	17
	10
	1
	19
	5
	2
	14
	16
	6
	15
	8
	1
	15
	11
	12
	13
	11
	0
	13
	8
	3
	4
	18
	9
	4
	5
	9
	15
	5
	9
	4
	6
	8
	13
	2
	11
	13
	12
	11
	4
	1
	8
	15
	3
	16
	19
	6
	10
	19
	6
	16
	17
	12
	5
	19
	0
	16
	15
	9
	5
	13
	7
	18
	15
	9
	5
	4
	9
	5
	13
	3
	8
